* Running in serial mode
>> Start of run:  14-FEB-2024  23:30:35

reinit: Reading from standard input
reinit: Dumped input in INPUT_TMP.18285
************************** Dump of input data file ****************************
SystemName graphene
SystemLabel graphene
NumberOfAtoms 2
NumberOfSpecies 1
%block ChemicalSpeciesLabel
1 6 C
%endblock ChemicalSpeciesLabel
LatticeConstant 2.461 Ang
%block LatticeVectors
0.866 0.500 0.000
-0.866 0.500 0.000
0.000 0.000 1.000
%endblock LatticeVectors
AtomicCoordinatesFormat ScaledCartesian
%block AtomicCoordinatesAndAtomicSpecies
0.000 0.000 0.000 1 C
0.577 0.000 0.000 1 C
%endblock AtomicCoordinatesAndAtomicSpecies
%block kgrid_Monkhorst_Pack
   6  0  0  0.5
   0  6  0  0.5
   0  0  1  0.5
%endblock kgrid_Monkhorst_Pack
BandLinesScale       pi/a
%block Bandlines
  1   0.5000000000   0.000000000   0.0000   M
 30   0.0000000000   0.000000000   0.0000   \Gamma
 45   0.3333333333   0.333333333   0.0000   K
 30   0.5000000000   0.500000000   0.0000   M
%endblock BandLines
************************** End of input data file *****************************

reinit: -----------------------------------------------------------------------
reinit: System Name: graphene
reinit: -----------------------------------------------------------------------
reinit: System Label: graphene
reinit: -----------------------------------------------------------------------

initatom: Reading input for the pseudopotentials and atomic orbitals ----------
Species number:   1 Atomic number:    6 Label: C

Ground state valence configuration:   2s02  2p02
Reading pseudopotential information in formatted form from C.psf

Valence configuration for pseudopotential generation:
2s( 2.00) rc: 1.56
2p( 2.00) rc: 1.56
3d( 0.00) rc: 1.56
4f( 0.00) rc: 1.56
For C, standard SIESTA heuristics set lmxkb to 3
 (one more than the basis l, including polarization orbitals).
Use PS.lmax or PS.KBprojectors blocks to override.

<basis_specs>
C                    Z=   6    Mass=  12.010        Charge= 0.17977+309
Lmxo=1 Lmxkb= 3    BasisType=split      Semic=F
L=0  Nsemic=0  Cnfigmx=2
          i=1  nzeta=2  polorb=0  (2s)
            splnorm:   0.15000
               vcte:    0.0000
               rinn:    0.0000
               qcoe:    0.0000
               qyuk:    0.0000
               qwid:   0.10000E-01
                rcs:    0.0000      0.0000
            lambdas:    1.0000      1.0000
L=1  Nsemic=0  Cnfigmx=2
          i=1  nzeta=2  polorb=1  (2p)
            splnorm:   0.15000
               vcte:    0.0000
               rinn:    0.0000
               qcoe:    0.0000
               qyuk:    0.0000
               qwid:   0.10000E-01
                rcs:    0.0000      0.0000
            lambdas:    1.0000      1.0000
L=0  Nkbl=1  erefs: 0.17977+309
L=1  Nkbl=1  erefs: 0.17977+309
L=2  Nkbl=1  erefs: 0.17977+309
L=3  Nkbl=1  erefs: 0.17977+309
</basis_specs>

atom: Called for C                     (Z =   6)

read_vps: Pseudopotential generation method:
read_vps: ATM 3.2.2 Troullier-Martins
Valence charge for ps generation:    4.00000

xc_check: Exchange-correlation functional:
xc_check: Ceperley-Alder
V l=0 = -2*Zval/r beyond r=  1.4851
V l=1 = -2*Zval/r beyond r=  1.5227
V l=2 = -2*Zval/r beyond r=  1.5038
V l=3 = -2*Zval/r beyond r=  1.5038
All V_l potentials equal beyond r=  1.4851
This should be close to max(r_c) in ps generation
All pots = -2*Zval/r beyond r=  1.5227

VLOCAL1: 99.0% of the norm of Vloc inside     19.682 Ry
VLOCAL1: 99.9% of the norm of Vloc inside     44.856 Ry
atom: Maximum radius for 4*pi*r*r*local-pseudopot. charge    1.79142
atom: Maximum radius for r*vlocal+2*Zval:    1.54183
GHOST: No ghost state for L =  0
GHOST: No ghost state for L =  1
GHOST: No ghost state for L =  2
GHOST: No ghost state for L =  3

KBgen: Kleinman-Bylander projectors:
   l= 0   rc=  1.661951   el= -1.002418   Ekb=  5.300883   kbcos=  0.313864
   l= 1   rc=  1.661951   el= -0.398031   Ekb= -4.214295   kbcos= -0.356030
   l= 2   rc=  1.747182   el=  0.002326   Ekb= -1.050823   kbcos= -0.008844
   l= 3   rc=  1.791422   el=  0.003420   Ekb= -0.424939   kbcos= -0.001141

KBgen: Total number of Kleinman-Bylander projectors:   16
atom: -------------------------------------------------------------------------

atom: SANKEY-TYPE ORBITALS:
atom: Selected multiple-zeta basis: split

SPLIT: Orbitals with angular momentum L= 0

SPLIT: Basis orbitals for state 2s

SPLIT: PAO cut-off radius determined from an
SPLIT: energy shift=  0.020000 Ry

   izeta = 1
                 lambda =    1.000000
                     rc =    4.191849
                 energy =   -0.984403
                kinetic =    0.885950
    potential(screened) =   -1.870353
       potential(ionic) =   -5.481507

   izeta = 2
                 rmatch =    3.431921
              splitnorm =    0.150000
                 energy =   -0.853303
                kinetic =    1.308043
    potential(screened) =   -2.161346
       potential(ionic) =   -6.005511

SPLIT: Orbitals with angular momentum L= 1

SPLIT: Basis orbitals for state 2p

SPLIT: PAO cut-off radius determined from an
SPLIT: energy shift=  0.020000 Ry

   izeta = 1
                 lambda =    1.000000
                     rc =    4.870301
                 energy =   -0.378489
                kinetic =    2.551798
    potential(screened) =   -2.930286
       potential(ionic) =   -6.440678

   izeta = 2
                 rmatch =    3.475094
              splitnorm =    0.150000
                 energy =   -0.214479
                kinetic =    3.835397
    potential(screened) =   -4.049876
       potential(ionic) =   -7.943131

POLgen: Perturbative polarization orbital with L=  2

POLgen: Polarization orbital for state 2p

   izeta = 1
                     rc =    4.870301
                 energy =    1.280984
                kinetic =    2.626614
    potential(screened) =   -1.345631
       potential(ionic) =   -4.289975
atom: Total number of Sankey-type orbitals: 13

atm_pop: Valence configuration (for local Pseudopot. screening):
 2s( 2.00)
 2p( 2.00)
Vna: chval, zval:    4.00000   4.00000

Vna:  Cut-off radius for the neutral-atom potential:   4.870301

atom: _________________________________________________________________________

prinput: Basis input ----------------------------------------------------------

PAO.BasisType split

%block ChemicalSpeciesLabel
    1    6 C                       # Species index, atomic number, species label
%endblock ChemicalSpeciesLabel

%block PAO.Basis                 # Define Basis set
C                     2                    # Species label, number of l-shells
 n=2   0   2                         # n, l, Nzeta
   4.192      3.432
   1.000      1.000
 n=2   1   2 P   1                   # n, l, Nzeta, Polarization, NzetaPol
   4.870      3.475
   1.000      1.000
%endblock PAO.Basis

prinput: ----------------------------------------------------------------------

coor:   Atomic-coordinates input format  =     Cartesian coordinates
coor:                                          (in units of alat)

siesta: Atomic coordinates (Bohr) and species
siesta:      0.00000   0.00000   0.00000  1        1
siesta:      2.68341   0.00000   0.00000  1        2

siesta: System type = bulk

initatomlists: Number of atoms, orbitals, and projectors:      2    26    32

siesta: ******************** Simulation parameters ****************************
siesta:
siesta: The following are some of the parameters of the simulation.
siesta: A complete list of the parameters used, including default values,
siesta: can be found in file out.fdf
siesta:
redata: Spin configuration                          = none
redata: Number of spin components                   = 1
redata: Time-Reversal Symmetry                      = T
redata: Spin spiral                                 = F
redata: Long output                                 =   F
redata: Number of Atomic Species                    =        1
redata: Charge density info will appear in .RHO file
redata: Write Mulliken Pop.                         = NO
redata: Matel table size (NRTAB)                    =     1024
redata: Mesh Cutoff                                 =   300.0000 Ry
redata: Net charge of the system                    =     0.0000 |e|
redata: Min. number of SCF Iter                     =        0
redata: Max. number of SCF Iter                     =     1000
redata: SCF convergence failure will abort job
redata: SCF mix quantity                            = Hamiltonian
redata: Mix DM or H after convergence               =   F
redata: Recompute H after scf cycle                 =   F
redata: Mix DM in first SCF step                    =   T
redata: Write Pulay info on disk                    =   F
redata: New DM Occupancy tolerance                  = 0.000000000001
redata: No kicks to SCF
redata: DM Mixing Weight for Kicks                  =     0.5000
redata: Require Harris convergence for SCF          =   F
redata: Harris energy tolerance for SCF             =     0.000100 eV
redata: Require DM convergence for SCF              =   T
redata: DM tolerance for SCF                        =     0.000100
redata: Require EDM convergence for SCF             =   F
redata: EDM tolerance for SCF                       =     0.001000 eV
redata: Require H convergence for SCF               =   T
redata: Hamiltonian tolerance for SCF               =     0.001000 eV
redata: Require (free) Energy convergence for SCF   =   F
redata: (free) Energy tolerance for SCF             =     0.000100 eV
redata: Using Saved Data (generic)                  =   F
redata: Use continuation files for DM               =   F
redata: Neglect nonoverlap interactions             =   F
redata: Method of Calculation                       = Diagonalization
redata: Electronic Temperature                      =   299.9869 K
redata: Fix the spin of the system                  =   F
redata: Dynamics option                             = Single-point calculation
mix.SCF: Pulay mixing                            = Pulay
mix.SCF:    Variant                              = stable
mix.SCF:    History steps                        = 2
mix.SCF:    Linear mixing weight                 =     0.250000
mix.SCF:    Mixing weight                        =     0.250000
mix.SCF:    SVD condition                        = 0.1000E-07
redata: ***********************************************************************

%block SCF.Mixers
  Pulay
%endblock SCF.Mixers

%block SCF.Mixer.Pulay
  # Mixing method
  method pulay
  variant stable

  # Mixing options
  weight 0.2500
  weight.linear 0.2500
  history 2
%endblock SCF.Mixer.Pulay

DM_history_depth set to one: no extrapolation allowed by default for geometry relaxation
Size of DM history Fstack: 1
Total number of electrons:     8.000000
Total ionic charge:     8.000000
k-point displ. along   3 input, could be:     0.50    0.00
 Kpoints in:           18 . Kpoints trimmed:           18

siesta: k-grid: Number of k-points =    18
siesta: k-grid: Cutoff (effective) =     1.231 Ang
siesta: k-grid: Supercell and displacements
siesta: k-grid:    6   0   0      0.500
siesta: k-grid:    0   6   0      0.500
siesta: k-grid:    0   0   1      0.500

diag: Algorithm                                     = D&C
diag: Used triangular part                          = Lower
diag: Absolute tolerance                            =  0.100E-15
diag: Orthogonalization factor                      =  0.100E-05
Using LatticeConstant from fdf file for BandLinesScale:    4.650618 Bohr
Beware any cell changes by the end of the run
Using LatticeConstant from fdf file for BandLinesScale:    4.650618 Bohr
Beware any cell changes by the end of the run

superc: Internal auxiliary supercell:     5 x     5 x     5  =     125
superc: Number of atoms, orbitals, and projectors:    250   3250   4000

ts: **************************************************************
ts: Save H and S matrices                           =    F
ts: Save DM and EDM matrices                        =    F
ts: Only save the overlap matrix S                  =    F
ts: **************************************************************

************************ Begin: TS CHECKS AND WARNINGS ************************
************************ End: TS CHECKS AND WARNINGS **************************

                        Single-point calculation

superc: Internal auxiliary supercell:     5 x     5 x     5  =     125
superc: Number of atoms, orbitals, and projectors:    250   3250   4000

outcell: Unit cell vectors (Ang):
        2.131226    1.230500    0.000000
       -2.131226    1.230500    0.000000
        0.000000    0.000000    2.461000

outcell: Cell vector modules (Ang)   :    2.460946    2.460946    2.461000
outcell: Cell angles (23,13,12) (deg):     90.0000     90.0000    119.9985
outcell: Cell volume (Ang**3)        :     12.9078
<dSpData1D:S at geom step 0
  <sparsity:sparsity for geom step 0
    nrows_g=26 nrows=26 sparsity=67.1331 nnzs=45382, refcount: 7>
  <dData1D:(new from dSpData1D) n=45382, refcount: 1>
refcount: 1>
new_DM -- step:     1
Initializing Density Matrix...
DM filled with atomic data:
<dSpData2D:DM initialized from atoms
  <sparsity:sparsity for geom step 0
    nrows_g=26 nrows=26 sparsity=67.1331 nnzs=45382, refcount: 8>
  <dData2D:DM n=45382 m=1, refcount: 1>
refcount: 1>
No. of atoms with KB's overlaping orbs in proc 0. Max # of overlaps:      44     333
New grid distribution:   1
           1       1:   12    1:   12    1:   15

InitMesh: MESH =    24 x    24 x    30 =       17280
InitMesh: (bp) =    12 x    12 x    15 =        2160
InitMesh: Mesh cutoff (required, used) =   300.000   350.466 Ry
ExtMesh (bp) on 0 =    72 x    72 x    79 =      409536
PhiOnMesh: Number of (b)points on node 0 =                 2160
PhiOnMesh: nlist on node 0 =               263457

stepf: Fermi-Dirac step function

siesta: Program's energy decomposition (eV):
siesta: Ebs     =      -109.036182
siesta: Eions   =       524.139309
siesta: Ena     =       115.773555
siesta: Ekin    =       227.143622
siesta: Enl     =       -25.211587
siesta: Eso     =         0.000000
siesta: Edftu   =         0.000000
siesta: DEna    =        -9.942419
siesta: DUscf   =         1.132032
siesta: DUext   =         0.000000
siesta: Exc     =       -96.777586
siesta: eta*DQ  =         0.000000
siesta: Emadel  =         0.000000
siesta: Emeta   =         0.000000
siesta: Emolmec =         0.000000
siesta: Ekinion =         0.000000
siesta: Eharris =      -311.350863
siesta: Etot    =      -312.021692
siesta: FreeEng =      -312.021692

SCF Convergence by DM+H criterion
max |DM_out - DM_in|         :     0.0000134448
max |H_out - H_in|      (eV) :     0.0006627493
SCF cycle converged after 8 iterations

Using DM_out to compute the final energy and forces
No. of atoms with KB's overlaping orbs in proc 0. Max # of overlaps:      44     333

siesta: E_KS(eV) =             -312.1315

siesta: E_KS - E_eggbox =      -312.1315

siesta: Atomic forces (eV/Ang):
   Tot   -0.004448   -0.000000   -0.000000
   Max    0.162182
   Res    0.092361    sqrt( Sum f_i^2 / 3N )
   Max    0.162182    constrained

Stress tensor Voigt[x,y,z,yz,xz,xy] (kbar):      397.24      438.87    -1333.41       -0.00        0.00        0.00
(Free)E + p*V (eV/cell)     -310.7961
Target enthalpy (eV/cell)     -312.1315
Computing bands...

siesta: Program's energy decomposition (eV):
siesta: Ebs     =      -111.293784
siesta: Eions   =       524.139309
siesta: Ena     =       115.773555
siesta: Ekin    =       222.027777
siesta: Enl     =       -23.523618
siesta: Eso     =         0.000000
siesta: Edftu   =         0.000000
siesta: DEna    =        -7.015799
siesta: DUscf   =         0.847690
siesta: DUext   =         0.000000
siesta: Exc     =       -96.101823
siesta: eta*DQ  =         0.000000
siesta: Emadel  =         0.000000
siesta: Emeta   =         0.000000
siesta: Emolmec =         0.000000
siesta: Ekinion =         0.000000
siesta: Eharris =      -312.131527
siesta: Etot    =      -312.131527
siesta: FreeEng =      -312.131527

siesta: Final energy (eV):
siesta:  Band Struct. =    -111.293784
siesta:       Kinetic =     222.027777
siesta:       Hartree =      43.388005
siesta:       Edftu   =       0.000000
siesta:       Eso     =       0.000000
siesta:    Ext. field =       0.000000
siesta:   Exch.-corr. =     -96.101823
siesta:  Ion-electron =    -294.438191
siesta:       Ion-ion =    -187.007294
siesta:       Ekinion =       0.000000
siesta:         Total =    -312.131527
siesta:         Fermi =      -6.870734

siesta: Atomic forces (eV/Ang):
siesta:      1   -0.162182    0.000000   -0.000000
siesta:      2    0.157734   -0.000000   -0.000000
siesta: ----------------------------------------
siesta:    Tot   -0.004448   -0.000000   -0.000000

siesta: Stress tensor (static) (eV/Ang**3):
siesta:     0.247935   -0.000000    0.000000
siesta:     0.000000    0.273921    0.000000
siesta:     0.000000   -0.000000   -0.832242

siesta: Cell volume =         12.907815 Ang**3

siesta: Pressure (static):
siesta:                Solid            Molecule  Units
siesta:           0.00112683          0.00106295  Ry/Bohr**3
siesta:           0.10346196          0.09759627  eV/Ang**3
siesta:         165.76612349        156.36814730  kBar
(Free)E+ p_basis*V_orbitals  =        -311.531668
(Free)Eharris+ p_basis*V_orbitals  =        -311.531668

cite: Please see "graphene.bib" for an exhaustive BiBTeX file.
cite: Please clearly indicate Siesta version in published work: 4.1.5
cite: This calculation has made use of the following articles
cite: which are encouraged to be cited in a published work.
        Primary SIESTA paper
          DOI: www.doi.org/10.1088/0953-8984/14/11/302

Routine            Calls   Time/call    Tot.time        %
siesta                 1       5.022       5.022   100.00
Setup                  1       0.093       0.093     1.86
bands                  3       0.030       0.089     1.76
KSV_init               1       0.000       0.000     0.00
IterGeom               1       4.837       4.837    96.31
state_init             1       0.138       0.138     2.75
hsparse                1       0.010       0.010     0.20
overlap                1       0.111       0.111     2.20
Setup_H0               1       1.069       1.069    21.28
naefs                  2       0.000       0.000     0.01
MolMec                 2       0.000       0.000     0.00
kinefsm                2       0.060       0.120     2.39
nlefsm                 2       0.371       0.742    14.77
DHSCF_Init             1       0.411       0.411     8.18
DHSCF1                 1       0.019       0.019     0.38
INITMESH               1       0.000       0.000     0.00
DHSCF2                 1       0.389       0.389     7.74
REMESH                 1       0.107       0.107     2.13
REORD                 28       0.000       0.001     0.01
PHION                  1       0.261       0.261     5.21
COMM_BSC              43       0.000       0.001     0.01
POISON                11       0.001       0.006     0.12
fft                   22       0.000       0.004     0.07
IterSCF                8       0.332       2.658    52.92
setup_H                9       0.230       2.069    41.19
DHSCF                 10       0.282       2.822    56.20
DHSCF3                10       0.228       2.277    45.34
rhoofd                10       0.128       1.279    25.47
XC                    10       0.003       0.028     0.56
GXC-CellXC            10       0.003       0.028     0.56
cellXC                10       0.003       0.028     0.56
vmat                  10       0.096       0.962    19.14
compute_dm             8       0.072       0.575    11.44
diagon                 8       0.071       0.570    11.36
c-eigval             250       0.001       0.257     5.13
c-buildHS            250       0.001       0.237     4.72
cdiag                394       0.000       0.048     0.96
cdiag1               394       0.000       0.004     0.08
cdiag2               394       0.000       0.007     0.14
cdiag3               394       0.000       0.032     0.64
c-eigvec             144       0.001       0.206     4.11
cdiag4               144       0.000       0.001     0.01
c-buildD             144       0.001       0.192     3.81
MIXER                  7       0.001       0.004     0.08
PostSCF                1       0.970       0.970    19.31
DHSCF4                 1       0.545       0.545    10.86
dfscf                  1       0.522       0.522    10.39
overfsm                1       0.008       0.008     0.16
state_analysis         1       0.000       0.000     0.01
siesta_move            1       0.000       0.000     0.00
Analysis               1       0.092       0.092     1.83
siesta_analysis        1       0.092       0.092     1.83
optical                1       0.000       0.000     0.00

>> End of run:  14-FEB-2024  23:30:41
Job completed